Gadolinium antimonide telluride (1/1/1)
1.0
        4.2620000839         0.0000000000         0.0000000000
        0.0000000000         4.2620000839         0.0000000000
        0.0000000000         0.0000000000         9.2580003738
   Sb   Gd   Te
    2    2    2
Direct
     0.750000000         0.250000000         0.500000000
     0.250000000         0.750000000         0.500000000
     0.250000000         0.250000000         0.769999981
     0.750000000         0.750000000         0.230000019
     0.250000000         0.250000000         0.129999995
     0.750000000         0.750000000         0.870000005
