system = GdSbTe

#For structure inf
PREC = Accurate
IBRION = 8
EDIFF = 1.0e-08

#For smearing (note: close when band calculation)
ISMEAR = 0

LWAVE=.FALSE.
LCHARG=.FALSE.

#parrallel
LPLANE = .TRUE.
IALGO = 48
LSCALU = .FALSE.
NSIM = 4

#spin & moment 
ISPIN = 2
LORBIT = 10
LSORBIT = .TRUE.
LNONCOLLINEAR = .TRUE.
SAXIS = 0 0 1
MAGMOM = 6*0 0 0 0 0 0 0 6*0
