generated by phonopy
   1.0
     4.2620000839000003    0.0000000000000000    0.0000000000000000
     0.0000000000000000    4.2620000839000003    0.0000000000000000
     0.0000000000000000    0.0000000000000000    9.2580003737999998
Sb Gd Te
   2    2    2
Direct
  0.7500000000000000  0.2500000000000000  0.5000000000000000
  0.2500000000000000  0.7500000000000000  0.5000000000000000
  0.2500000000000000  0.2500000000000000  0.7699999810000000
  0.7500000000000000  0.7500000000000000  0.2300000190000000
  0.2500000000000000  0.2500000000000000  0.1299999950000000
  0.7500000000000000  0.7500000000000000  0.8700000050000000
